3095
924
4146
5188
8760
769
4587
4651
6007
7361
5752
5598
2958
4829
4765
7936
2593
2354
1282
7190
7632
8158
2779
9026
7599
5366
2984
1687
6375
10159
5377
962
3134
10121
7594
8763
488
544
7479
5274
7984
4444
1366
5398
5295
6154
473
3063
5041
1100
